20
0 1 0.53 0.29
0 2 0.76 0.44
0 3 0.62 0.38
0 4 0.51 0.4
0 5 0.54 0.4
0 6 0.73 0.39
0 7 0.54 0.19
0 8 0.45 0.22
0 9 0.88 0.34
0 10 0.82 0.44
0 11 0.42 0.4
0 12 0.56 0.51
0 13 0.48 0.22
0 14 0.69 0.12
0 15 0.48 0.26
0 16 0.74 0.32
0 17 0.62 0.28
0 18 0.55 0.45
0 19 0.22 0.18
1 2 0.48 0.4
1 3 0.64 0.45
1 4 0.52 0.37
1 5 0.54 0.3
1 6 0.58 0.27
1 7 0.72 0.24
1 8 0.7 0.38
1 9 0.8 0.28
1 10 0.52 0.26
1 11 0.62 0.11
1 12 0.52 0.41
1 13 0.44 0.16
1 14 0.44 0.17
1 15 0.61 0.32
1 16 0.46 0.37
1 17 0.55 0.22
1 18 0.41 0.39
1 19 0.74 0.12
2 3 0.74 0.38
2 4 0.49 0.2
2 5 0.48 0.16
2 6 0.66 0.43
2 7 0.72 0.25
2 8 0.38 0.22
2 9 0.7 0.36
2 10 0.88 0.29
2 11 0.79 0.51
2 12 0.76 0.45
2 13 0.3 0.26
2 14 0.68 0.32
2 15 0.66 0.44
2 16 0.69 0.12
2 17 0.64 0.18
2 18 0.69 0.28
2 19 0.58 0.28
3 4 0.6 0.34
3 5 0.61 0.36
3 6 0.43 0.37
3 7 0.66 0.35
3 8 0.36 0.16
3 9 0.42 0.39
3 10 0.77 0.43
3 11 0.64 0.38
3 12 0.51 0.38
3 13 0.7 0.4
3 14 0.29 0.28
3 15 0.7 0.14
3 16 0.68 0.26
3 17 0.53 0.44
3 18 0.7 0.36
3 19 0.65 0.34
4 5 0.4 0.36
4 6 0.61 0.5
4 7 0.66 0.36
4 8 0.34 0.18
4 9 0.46 0.38
4 10 0.6 0.4
4 11 0.56 0.39
4 12 0.57 0.48
4 13 0.42 0.4
4 14 0.64 0.42
4 15 0.62 0.45
4 16 0.58 0.23
4 17 0.72 0.35
4 18 0.56 0.39
4 19 0.36 0.25
5 6 0.72 0.52
5 7 0.58 0.24
5 8 0.62 0.2
5 9 0.86 0.38
5 10 0.52 0.37
5 11 0.74 0.41
5 12 0.66 0.32
5 13 0.78 0.41
5 14 0.32 0.29
5 15 0.58 0.42
5 16 0.68 0.2
5 17 0.53 0.32
5 18 0.64 0.36
5 19 0.32 0.22
6 7 0.63 0.39
6 8 0.68 0.32
6 9 0.8 0.5
6 10 0.54 0.24
6 11 0.32 0.24
6 12 0.52 0.5
6 13 0.36 0.17
6 14 0.58 0.32
6 15 0.58 0.23
6 16 0.7 0.4
6 17 0.7 0.46
6 18 0.57 0.26
6 19 0.74 0.39
7 8 0.5 0.23
7 9 0.66 0.29
7 10 0.5 0.3
7 11 0.66 0.35
7 12 0.58 0.34
7 13 0.49 0.22
7 14 0.52 0.07
7 15 0.44 0.38
7 16 0.64 0.13
7 17 0.54 0.32
7 18 0.56 0.26
7 19 0.66 0.36
8 9 0.53 0.42
8 10 0.68 0.27
8 11 0.62 0.49
8 12 0.56 0.43
8 13 0.34 0.24
8 14 0.3 0.28
8 15 0.51 0.3
8 16 0.53 0.1
8 17 0.65 0.34
8 18 0.5 0.26
8 19 0.67 0.26
9 10 0.36 0.26
9 11 0.53 0.39
9 12 0.68 0.36
9 13 0.44 0.38
9 14 0.7 0.22
9 15 0.64 0.36
9 16 0.7 0.34
9 17 0.68 0.26
9 18 0.54 0.46
9 19 0.76 0.16
10 11 0.76 0.37
10 12 0.84 0.5
10 13 0.58 0.41
10 14 0.78 0.32
10 15 0.44 0.33
10 16 0.68 0.17
10 17 0.42 0.41
10 18 0.9 0.22
10 19 0.7 0.38
11 12 0.52 0.3
11 13 0.6 0.27
11 14 0.9 0.28
11 15 0.64 0.43
11 16 0.7 0.48
11 17 0.68 0.33
11 18 0.7 0.5
11 19 0.64 0.23
12 13 0.46 0.36
12 14 0.76 0.41
12 15 0.58 0.44
12 16 0.5 0.33
12 17 0.42 0.4
12 18 0.67 0.49
12 19 0.34 0.33
13 14 0.52 0.29
13 15 0.68 0.4
13 16 0.64 0.34
13 17 0.34 0.3
13 18 0.74 0.43
13 19 0.46 0.26
14 15 0.73 0.38
14 16 0.42 0.2
14 17 0.63 0.38
14 18 0.53 0.33
14 19 0.47 0.29
15 16 0.51 0.4
15 17 0.52 0.3
15 18 0.59 0.49
15 19 0.26 0.2
16 17 0.53 0.24
16 18 0.55 0.16
16 19 0.54 0.34
17 18 0.62 0.4
17 19 0.56 0.1
18 19 0.33 0.3
